p wcnf 164 328 329 
1 -52 -44 0 
1 -61 -108 0 
1 142 -1 0 
1 125 65 0 
1 -49 -36 0 
1 48 -108 0 
1 -87 -153 0 
1 -139 26 0 
1 80 88 0 
1 164 -95 0 
1 25 131 0 
1 -103 -157 0 
1 62 68 0 
1 -88 -24 0 
1 -32 -49 0 
1 -61 -143 0 
1 -147 -115 0 
1 149 -48 0 
1 105 157 0 
1 6 -104 0 
1 -60 -137 0 
1 98 71 0 
1 55 28 0 
1 -49 15 0 
1 109 -62 0 
1 -97 -141 0 
1 134 -89 0 
1 -50 93 0 
1 51 -68 0 
1 22 45 0 
1 -65 27 0 
1 -125 61 0 
1 -6 162 0 
1 -105 -158 0 
1 -126 83 0 
1 51 -22 0 
1 162 44 0 
1 -150 -141 0 
1 -18 -153 0 
1 -113 74 0 
1 100 -56 0 
1 -87 -62 0 
1 22 -11 0 
1 136 35 0 
1 -151 36 0 
1 -148 -62 0 
1 -31 124 0 
1 139 75 0 
1 -133 108 0 
1 -71 111 0 
1 -43 64 0 
1 -30 -138 0 
1 20 151 0 
1 44 3 0 
1 29 -163 0 
1 -109 -54 0 
1 -161 26 0 
1 34 70 0 
1 92 -55 0 
1 -94 -143 0 
1 5 -23 0 
1 -158 14 0 
1 60 161 0 
1 -139 -69 0 
1 45 24 0 
1 19 25 0 
1 -140 65 0 
1 116 78 0 
1 108 -21 0 
1 112 -21 0 
1 -73 -61 0 
1 33 -133 0 
1 -156 -114 0 
1 -111 -21 0 
1 -98 121 0 
1 -89 21 0 
1 -116 -139 0 
1 132 -138 0 
1 93 136 0 
1 87 159 0 
1 -126 -46 0 
1 -108 94 0 
1 -100 -142 0 
1 -5 90 0 
1 -6 -52 0 
1 117 13 0 
1 -85 -64 0 
1 33 71 0 
1 -133 -140 0 
1 160 -118 0 
1 78 -144 0 
1 85 -2 0 
1 -95 -113 0 
1 105 40 0 
1 49 61 0 
1 -78 98 0 
1 3 -118 0 
1 -96 -44 0 
1 34 -13 0 
1 -135 -72 0 
1 -110 29 0 
1 12 -133 0 
1 -112 -120 0 
1 -81 -15 0 
1 -8 -22 0 
1 -69 146 0 
1 127 -124 0 
1 -139 24 0 
1 115 136 0 
1 -158 -105 0 
1 -70 -7 0 
1 104 -117 0 
1 143 65 0 
1 6 114 0 
1 -50 83 0 
1 148 -102 0 
1 -111 119 0 
1 -86 -33 0 
1 61 104 0 
1 67 -52 0 
1 -154 -53 0 
1 108 69 0 
1 141 -20 0 
1 138 -75 0 
1 37 -15 0 
1 -26 76 0 
1 -74 96 0 
1 114 -55 0 
1 -71 -26 0 
1 121 -120 0 
1 -97 -22 0 
1 -131 48 0 
1 -45 -66 0 
1 -127 21 0 
1 31 24 0 
1 134 108 0 
1 10 162 0 
1 111 -123 0 
1 -79 126 0 
1 17 148 0 
1 -154 -62 0 
1 -119 107 0 
1 -67 58 0 
1 75 -31 0 
1 -48 62 0 
1 38 -17 0 
1 -143 -108 0 
1 32 -147 0 
1 45 41 0 
1 -46 91 0 
1 -49 24 0 
1 -86 -48 0 
1 84 154 0 
1 -1 68 0 
1 -154 -163 0 
1 136 -125 0 
1 -134 88 0 
1 13 -140 0 
1 109 -33 0 
1 -51 95 0 
1 33 -28 0 
1 107 -9 0 
1 68 -78 0 
1 125 -137 0 
1 16 -94 0 
1 -140 -148 0 
1 -51 -160 0 
1 107 42 0 
1 -49 68 0 
1 21 27 0 
1 10 -26 0 
1 1 76 0 
1 -11 -162 0 
1 -127 141 0 
1 -42 114 0 
1 32 42 0 
1 -59 -138 0 
1 -134 -130 0 
1 49 33 0 
1 -78 -57 0 
1 -7 -38 0 
1 -97 -12 0 
1 110 -141 0 
1 29 120 0 
1 45 -128 0 
1 10 21 0 
1 56 21 0 
1 -106 -124 0 
1 -84 51 0 
1 -142 100 0 
1 -91 87 0 
1 119 -30 0 
1 84 -111 0 
1 94 152 0 
1 155 -107 0 
1 107 38 0 
1 110 3 0 
1 117 -160 0 
1 -27 -146 0 
1 39 34 0 
1 -8 -68 0 
1 158 66 0 
1 -155 32 0 
1 -19 -147 0 
1 -41 -83 0 
1 -70 12 0 
1 -89 130 0 
1 -132 70 0 
1 145 117 0 
1 131 82 0 
1 113 39 0 
1 65 -55 0 
1 -27 68 0 
1 21 -156 0 
1 -38 -7 0 
1 66 -139 0 
1 -70 8 0 
1 146 -108 0 
1 138 -124 0 
1 37 150 0 
1 78 71 0 
1 141 -101 0 
1 -125 -112 0 
1 -141 138 0 
1 -6 -25 0 
1 -10 114 0 
1 114 143 0 
1 146 -110 0 
1 -139 91 0 
1 -44 125 0 
1 20 -131 0 
1 142 38 0 
1 -15 80 0 
1 -81 142 0 
1 -150 29 0 
1 158 -138 0 
1 -118 77 0 
1 70 1 0 
1 -92 -19 0 
1 -23 -128 0 
1 101 -113 0 
1 39 143 0 
1 -164 125 0 
1 -70 -117 0 
1 140 73 0 
1 77 -107 0 
1 -37 -138 0 
1 116 78 0 
1 -122 -151 0 
1 43 -150 0 
1 -46 -113 0 
1 18 -22 0 
1 -142 83 0 
1 2 147 0 
1 126 146 0 
1 137 -13 0 
1 34 54 0 
1 7 -85 0 
1 153 -89 0 
1 -38 164 0 
1 46 -55 0 
1 109 149 0 
1 -112 163 0 
1 94 100 0 
1 119 -15 0 
1 -58 105 0 
1 116 5 0 
1 23 -134 0 
1 -73 -80 0 
1 -164 -37 0 
1 102 164 0 
1 -116 70 0 
1 106 70 0 
1 -107 39 0 
1 132 97 0 
1 -13 53 0 
1 100 -24 0 
1 27 -96 0 
1 -95 -154 0 
1 104 -141 0 
1 59 -132 0 
1 115 -68 0 
1 -131 14 0 
1 -39 -70 0 
1 -21 96 0 
1 -99 30 0 
1 -65 -2 0 
1 112 10 0 
1 -64 -148 0 
1 157 127 0 
1 26 131 0 
1 147 -140 0 
1 -43 65 0 
1 -65 -10 0 
1 -134 -144 0 
1 -109 148 0 
1 -119 156 0 
1 -114 -161 0 
1 -26 72 0 
1 -27 85 0 
1 74 -103 0 
1 -41 133 0 
1 -32 22 0 
1 -2 19 0 
1 -6 88 0 
1 32 -24 0 
1 -135 27 0 
1 27 -142 0 
1 121 -99 0 
1 -120 78 0 
1 -113 -87 0 
1 -117 -51 0 
1 -34 -58 0 
1 -147 127 0 
1 -148 -38 0 
1 -38 -78 0 
1 -113 -155 0 
1 -69 -87 0 
1 73 27 0 
1 54 -84 0 
1 -45 136 0 
1 -28 52 0 
1 -30 60 0 
1 -136 91 0 
1 -54 -38 0 
1 96 40 0 
1 110 119 0 
1 -29 -65 0 
